cnf/map_5x5_25p_1.cnf
p cnf 25 71
-23 0
-22 0
-21 0
-18 0
-15 0
-14 0
-13 0
-11 0
-7 0
-6 0
-4 0
-3 0
-2 0
5 0
8 0
9 0
10 0
12 0
16 0
17 0
-24 -19 0
-24 -17 0
-19 -17 0
-12 -1 0
-8 -1 0
1 12 0
8 1 0
8 9 0
8 12 0
8 17 0
8 19 0
9 12 0
9 17 0
9 19 0
17 12 0
17 19 0
19 12 0
-24 -19 -17 0
-24 -12 -19 0
-24 -12 -17 0
-20 -19 -10 0
-20 -19 -9 0
-20 -10 -9 0
-19 -10 -9 0
-12 -19 -17 0
-8 -12 -1 0
8 1 12 0
8 9 10 0
8 9 19 0
8 9 20 0
8 10 19 0
8 10 20 0
8 19 20 0
9 10 19 0
9 10 20 0
9 19 20 0
10 19 20 0
17 19 12 0
24 17 12 0
24 17 19 0
24 19 12 0
-20 -19 -10 -9 0
-8 -20 -19 -10 0
-8 -20 -19 -9 0
-8 -20 -10 -9 0
-8 -19 -10 -9 0
9 10 19 20 0
24 17 19 12 0
-19 -17 -12 -9 -8 0
8 9 10 19 20 0
8 9 12 17 19 0