maps/map_5x5_25p_1.txt
5 5
_,1,2,4,_
1,2,_,_,_
3,_,4,3,2
_,_,2,_,_
2,2,1,_,_
